\ENCODING=ISO-8859-1
\Problem name: ilog.cplex

Minimize
 obj1: 98626 x1 + 94986 x2 + 90385 x3 + 98492 x4 + 98870 x5 + 107215 x6
       + 101622 x7 + 106755 x8 + 104531 x9 + 106680 x10 + 101953 x11
       + 90972 x12 + 103466 x13 + 101595 x14 + 91708 x15 + 92071 x16
       + 97278 x17 + 109612 x18 + 99650 x19 + 97055 x20 + 96364 x21
       + 100648 x22 + 90377 x23 + 105000 x24 + 91847 x25 + 103846 x26
       + 105479 x27 + 103833 x28 + 97886 x29 + 100377 x30 + 106544 x31
       + 99639 x32 + 98516 x33 + 101519 x34 + 94124 x35 + 95720 x36
       + 109425 x37 + 109684 x38 + 108292 x39 + 104756 x40 + 96996 x41
       + 99054 x42 + 93678 x43 + 94128 x44 + 104415 x45 + 91984 x46 + 94671 x47
       + 91869 x48 + 97855 x49 + 107558 x50 + 94942 x51 + 98648 x52
       + 104443 x53 + 99423 x54 + 109535 x55 + 99853 x56 + 108181 x57
       + 101511 x58 + 97467 x59 + 91044 x60 + 99915 x61 + 103433 x62
       + 90782 x63 + 105574 x64 + 108414 x65 + 99980 x66 + 101151 x67
       + 91984 x68 + 109755 x69 + 92443 x70 + 106096 x71 + 92528 x72
       + 96813 x73 + 100413 x74 + 94441 x75 + 93293 x76 + 90748 x77
       + 107517 x78 + 92995 x79 + 96084 x80 + 101697 x81 + 105170 x82
       + 98821 x83 + 93680 x84 + 106977 x85 + 96581 x86 + 94387 x87 + 93604 x88
       + 96499 x89 + 99806 x90 + 105146 x91 + 108851 x92 + 109931 x93
       + 99342 x94 + 106760 x95 + 109954 x96 + 95665 x97 + 101959 x98
       + 97478 x99 + 94371 x100 + 97717 x101 + 94402 x102 + 100136 x103
       + 96368 x104 + 103488 x105 + 98120 x106 + 107744 x107 + 93404 x108
       + 102596 x109 + 109281 x110 + 96848 x111 + 103501 x112 + 95063 x113
       + 101156 x114 + 103641 x115 + 92126 x116 + 105682 x117 + 90307 x118
       + 109206 x119 + 96869 x120 + 93484 x121 + 102624 x122 + 94329 x123
       + 101152 x124 + 107862 x125 + 90011 x126 + 102328 x127 + 107638 x128
       + 105031 x129 + 109115 x130 + 109191 x131 + 103954 x132 + 98564 x133
       + 97383 x134 + 90563 x135 + 92921 x136 + 101518 x137 + 100029 x138
       + 94936 x139 + 101047 x140 + 103557 x141 + 94498 x142 + 107513 x143
       + 97892 x144 + 107961 x145 + 101041 x146 + 102684 x147 + 102070 x148
       + 96922 x149 + 101909 x150 + 109248 x151 + 91253 x152 + 93886 x153
       + 96543 x154 + 93147 x155 + 91204 x156 + 97641 x157 + 95583 x158
       + 98767 x159 + 97164 x160 + 94434 x161 + 102692 x162 + 101715 x163
       + 99867 x164 + 91604 x165 + 109882 x166 + 93557 x167 + 107962 x168
       + 99066 x169 + 99408 x170 + 102090 x171 + 98859 x172 + 93418 x173
       + 103296 x174 + 109534 x175 + 90747 x176 + 93535 x177 + 100161 x178
       + 105401 x179 + 90028 x180 + 90399 x181 + 105850 x182 + 103368 x183
       + 96772 x184 + 102536 x185 + 102745 x186 + 91246 x187 + 99848 x188
       + 96611 x189 + 91929 x190 + 94236 x191 + 96271 x192 + 103804 x193
       + 95703 x194 + 94926 x195 + 107137 x196 + 107522 x197 + 101641 x198
       + 90863 x199 + 96223 x200 + 100218 x201 + 90913 x202 + 97930 x203
       + 105364 x204 + 107506 x205 + 90945 x206 + 93452 x207 + 91812 x208
       + 107664 x209 + 101157 x210 + 94338 x211 + 97022 x212 + 101727 x213
       + 90827 x214 + 100432 x215 + 106950 x216 + 96979 x217 + 104099 x218
       + 98746 x219 + 90210 x220 + 95011 x221 + 108737 x222 + 100344 x223
       + 102345 x224 + 104398 x225 + 92422 x226 + 108401 x227 + 101976 x228
       + 107626 x229 + 103233 x230 + 93309 x231 + 97736 x232 + 102061 x233
       + 109403 x234 + 98705 x235 + 93678 x236 + 105547 x237 + 97529 x238
       + 100896 x239 + 105235 x240 + 97808 x241 + 107780 x242 + 102656 x243
       + 108236 x244 + 95750 x245 + 105407 x246 + 97463 x247 + 95853 x248
       + 100734 x249 + 98330 x250 + 105934 x251 + 107200 x252 + 105416 x253
       + 107058 x254 + 103280 x255 + 92537 x256 + 90819 x257 + 95383 x258
       + 105467 x259 + 94466 x260 + 94003 x261 + 103652 x262 + 97640 x263
       + 105394 x264 + 106359 x265 + 95287 x266 + 96351 x267 + 103316 x268
       + 92257 x269 + 92458 x270 + 94635 x271 + 94063 x272 + 102807 x273
       + 93906 x274 + 99306 x275 + 92976 x276 + 100115 x277 + 105563 x278
       + 95795 x279 + 94508 x280 + 103720 x281 + 92924 x282 + 107442 x283
       + 104336 x284 + 102752 x285 + 103058 x286 + 93364 x287 + 105299 x288
       + 104901 x289 + 103685 x290 + 91842 x291 + 95880 x292 + 96423 x293
       + 106925 x294 + 104630 x295 + 97889 x296 + 106168 x297 + 106139 x298
       + 91688 x299 + 181689 x300 + 21725 x301 + 18746 x302 + 19635 x303
       + 20190 x304 + 18407 x305 + 20813 x306 + 20058 x307 + 18755 x308
       + 21278 x309 + 19539 x310 + 18335 x311 + 18296 x312 + 21651 x313
       + 18466 x314 + 20487 x315 + 18265 x316 + 21513 x317 + 21874 x318
       + 19388 x319 + 20200 x320 + 18907 x321 + 19971 x322 + 20060 x323
       + 20801 x324 + 18914 x325 + 19867 x326 + 21187 x327 + 18378 x328
       + 18624 x329 + 21469 x330 + 18693 x331 + 21515 x332 + 19995 x333
       + 18669 x334 + 20459 x335 + 18206 x336 + 18420 x337 + 20850 x338
       + 18831 x339 + 20582 x340 + 21119 x341 + 21714 x342 + 19569 x343
       + 20485 x344 + 20102 x345 + 19832 x346 + 20213 x347 + 18759 x348
       + 19520 x349 + 18074 x350 + 19588 x351 + 18043 x352 + 20603 x353
       + 21169 x354 + 19235 x355 + 19172 x356 + 19190 x357 + 20216 x358
       + 19065 x359 + 32313 x360
Subject To
 c1:   x5 + x9 - x12 - x15 + x27 + x28 + x35 - x44 - x52 + x55 - x58 - x59  = 0
 c2:   x65 + x69 - x72 - x75 + x87 + x88 + x95 - x104 - x112 + x115 - x118
       - x119  = 0
 c3:   x125 + x129 - x132 - x135 + x147 + x148 + x155 - x164 - x172 + x175
       - x178 - x179  = 0
 c4:   x185 + x189 - x192 - x195 + x207 + x208 + x215 - x224 - x232 + x235
       - x238 - x239  = 0
 c5:   x245 + x249 - x252 - x255 + x267 + x268 + x275 - x284 - x292 + x295
       - x298 - x299  = 0
 c6:   x1 + x7 + x10 + x14 - x23 + x26 + x31 - x33 - x47 + x52 - x55 - x56
       - x57  = 0
 c7:   x61 + x67 + x70 + x74 - x83 + x86 + x91 - x93 - x107 + x112 - x115
       - x116 - x117  = 0
 c8:   x121 + x127 + x130 + x134 - x143 + x146 + x151 - x153 - x167 + x172
       - x175 - x176 - x177  = -1
 c9:   x181 + x187 + x190 + x194 - x203 + x206 + x211 - x213 - x227 + x232
       - x235 - x236 - x237  = 0
 c10:  x241 + x247 + x250 + x254 - x263 + x266 + x271 - x273 - x287 + x292
       - x295 - x296 - x297  = -1
 c11:  - x6 - x13 - x14 + x16 + x19 + x20 + x22 - x28 - x38 - x39 + x41 + x50
       - x60  = 1
 c12:  - x66 - x73 - x74 + x76 + x79 + x80 + x82 - x88 - x98 - x99 + x101
       + x110 - x120  = 0
 c13:  - x126 - x133 - x134 + x136 + x139 + x140 + x142 - x148 - x158 - x159
       + x161 + x170 - x180  = 0
 c14:  - x186 - x193 - x194 + x196 + x199 + x200 + x202 - x208 - x218 - x219
       + x221 + x230 - x240  = 0
 c15:  - x246 - x253 - x254 + x256 + x259 + x260 + x262 - x268 - x278 - x279
       + x281 + x290 - x300  = 0
 c16:  x6 - x21 - x24 - x26 + x29 + x33 - x41 - x45 - x48 + x49 + x54  = 0
 c17:  x66 - x81 - x84 - x86 + x89 + x93 - x101 - x105 - x108 + x109 + x114
        = 0
 c18:  x126 - x141 - x144 - x146 + x149 + x153 - x161 - x165 - x168 + x169
       + x174  = 0
 c19:  x186 - x201 - x204 - x206 + x209 + x213 - x221 - x225 - x228 + x229
       + x234  = 0
 c20:  x246 - x261 - x264 - x266 + x269 + x273 - x281 - x285 - x288 + x289
       + x294  = 0
 c21:  - x2 + x3 - x5 - x7 - x8 - x19 + x37 - x42 + x43 - x46 + x48 - x49 + x57
       + x58  = -1
 c22:  - x62 + x63 - x65 - x67 - x68 - x79 + x97 - x102 + x103 - x106 + x108
       - x109 + x117 + x118  = 0
 c23:  - x122 + x123 - x125 - x127 - x128 - x139 + x157 - x162 + x163 - x166
       + x168 - x169 + x177 + x178  = 0
 c24:  - x182 + x183 - x185 - x187 - x188 - x199 + x217 - x222 + x223 - x226
       + x228 - x229 + x237 + x238  = 0
 c25:  - x242 + x243 - x245 - x247 - x248 - x259 + x277 - x282 + x283 - x286
       + x288 - x289 + x297 + x298  = 1
 c26:  x2 + x4 - x11 + x13 - x16 - x18 + x24 - x27 - x29 + x32 + x40 + x44
       + x47  = 0
 c27:  x62 + x64 - x71 + x73 - x76 - x78 + x84 - x87 - x89 + x92 + x100 + x104
       + x107  = 0
 c28:  x122 + x124 - x131 + x133 - x136 - x138 + x144 - x147 - x149 + x152
       + x160 + x164 + x167  = 0
 c29:  x182 + x184 - x191 + x193 - x196 - x198 + x204 - x207 - x209 + x212
       + x220 + x224 + x227  = -1
 c30:  x242 + x244 - x251 + x253 - x256 - x258 + x264 - x267 - x269 + x272
       + x280 + x284 + x287  = 0
 c31:  - x17 - x32 + x34 + x36 + x42 - x43 - x50 + x53 + x59  = 0
 c32:  - x77 - x92 + x94 + x96 + x102 - x103 - x110 + x113 + x119  = 1
 c33:  - x137 - x152 + x154 + x156 + x162 - x163 - x170 + x173 + x179  = 0
 c34:  - x197 - x212 + x214 + x216 + x222 - x223 - x230 + x233 + x239  = 0
 c35:  - x257 - x272 + x274 + x276 + x282 - x283 - x290 + x293 + x299  = 0
 c36:  - x1 + x11 + x17 + x25 - x30 - x36 + x38 - x40 + x56  = 0
 c37:  - x61 + x71 + x77 + x85 - x90 - x96 + x98 - x100 + x116  = 0
 c38:  - x121 + x131 + x137 + x145 - x150 - x156 + x158 - x160 + x176  = 0
 c39:  - x181 + x191 + x197 + x205 - x210 - x216 + x218 - x220 + x236  = 0
 c40:  - x241 + x251 + x257 + x265 - x270 - x276 + x278 - x280 + x296  = 0
 c41:  - x3 + x8 - x10 + x15 + x18 + x21 - x22 + x23 - x25 - x35 + x39 + x51
       - x53  = 0
 c42:  - x63 + x68 - x70 + x75 + x78 + x81 - x82 + x83 - x85 - x95 + x99 + x111
       - x113  = 0
 c43:  - x123 + x128 - x130 + x135 + x138 + x141 - x142 + x143 - x145 - x155
       + x159 + x171 - x173  = 0
 c44:  - x183 + x188 - x190 + x195 + x198 + x201 - x202 + x203 - x205 - x215
       + x219 + x231 - x233  = 0
 c45:  - x243 + x248 - x250 + x255 + x258 + x261 - x262 + x263 - x265 - x275
       + x279 + x291 - x293  = 0
 c46:  - x4 - x9 + x12 - x20 + x30 - x31 - x34 - x37 + x45 + x46 - x51 - x54
       + x60  = 0
 c47:  - x64 - x69 + x72 - x80 + x90 - x91 - x94 - x97 + x105 + x106 - x111
       - x114 + x120  = -1
 c48:  - x124 - x129 + x132 - x140 + x150 - x151 - x154 - x157 + x165 + x166
       - x171 - x174 + x180  = 1
 c49:  - x184 - x189 + x192 - x200 + x210 - x211 - x214 - x217 + x225 + x226
       - x231 - x234 + x240  = 1
 c50:  - x244 - x249 + x252 - x260 + x270 - x271 - x274 - x277 + x285 + x286
       - x291 - x294 + x300  = 0
 c51:  4 x1 + 4 x61 + 4 x121 + 4 x181 + 4 x241 - 10 x301 <= 0
 c52:  4 x2 + 4 x62 + 4 x122 + 4 x182 + 4 x242 - 10 x302 <= 0
 c53:  4 x3 + 4 x63 + 4 x123 + 4 x183 + 4 x243 - 10 x303 <= 0
 c54:  4 x4 + 4 x64 + 4 x124 + 4 x184 + 4 x244 - 11 x304 <= 0
 c55:  4 x5 + 4 x65 + 4 x125 + 4 x185 + 4 x245 - 11 x305 <= 0
 c56:  4 x6 + 4 x66 + 4 x126 + 4 x186 + 4 x246 - 10 x306 <= 0
 c57:  4 x7 + 4 x67 + 4 x127 + 4 x187 + 4 x247 - 9 x307 <= 0
 c58:  4 x8 + 4 x68 + 4 x128 + 4 x188 + 4 x248 - 10 x308 <= 0
 c59:  4 x9 + 4 x69 + 4 x129 + 4 x189 + 4 x249 - 9 x309 <= 0
 c60:  4 x10 + 4 x70 + 4 x130 + 4 x190 + 4 x250 - 9 x310 <= 0
 c61:  4 x11 + 4 x71 + 4 x131 + 4 x191 + 4 x251 - 10 x311 <= 0
 c62:  4 x12 + 4 x72 + 4 x132 + 4 x192 + 4 x252 - 10 x312 <= 0
 c63:  4 x13 + 4 x73 + 4 x133 + 4 x193 + 4 x253 - 11 x313 <= 0
 c64:  4 x14 + 4 x74 + 4 x134 + 4 x194 + 4 x254 - 9 x314 <= 0
 c65:  4 x15 + 4 x75 + 4 x135 + 4 x195 + 4 x255 - 10 x315 <= 0
 c66:  4 x16 + 4 x76 + 4 x136 + 4 x196 + 4 x256 - 9 x316 <= 0
 c67:  4 x17 + 4 x77 + 4 x137 + 4 x197 + 4 x257 - 11 x317 <= 0
 c68:  4 x18 + 4 x78 + 4 x138 + 4 x198 + 4 x258 - 11 x318 <= 0
 c69:  4 x19 + 4 x79 + 4 x139 + 4 x199 + 4 x259 - 10 x319 <= 0
 c70:  4 x20 + 4 x80 + 4 x140 + 4 x200 + 4 x260 - 9 x320 <= 0
 c71:  4 x21 + 4 x81 + 4 x141 + 4 x201 + 4 x261 - 11 x321 <= 0
 c72:  4 x22 + 4 x82 + 4 x142 + 4 x202 + 4 x262 - 10 x322 <= 0
 c73:  4 x23 + 4 x83 + 4 x143 + 4 x203 + 4 x263 - 10 x323 <= 0
 c74:  4 x24 + 4 x84 + 4 x144 + 4 x204 + 4 x264 - 9 x324 <= 0
 c75:  4 x25 + 4 x85 + 4 x145 + 4 x205 + 4 x265 - 9 x325 <= 0
 c76:  4 x26 + 4 x86 + 4 x146 + 4 x206 + 4 x266 - 11 x326 <= 0
 c77:  4 x27 + 4 x87 + 4 x147 + 4 x207 + 4 x267 - 10 x327 <= 0
 c78:  4 x28 + 4 x88 + 4 x148 + 4 x208 + 4 x268 - 9 x328 <= 0
 c79:  4 x29 + 4 x89 + 4 x149 + 4 x209 + 4 x269 - 9 x329 <= 0
 c80:  4 x30 + 4 x90 + 4 x150 + 4 x210 + 4 x270 - 10 x330 <= 0
 c81:  4 x31 + 4 x91 + 4 x151 + 4 x211 + 4 x271 - 10 x331 <= 0
 c82:  4 x32 + 4 x92 + 4 x152 + 4 x212 + 4 x272 - 10 x332 <= 0
 c83:  4 x33 + 4 x93 + 4 x153 + 4 x213 + 4 x273 - 11 x333 <= 0
 c84:  4 x34 + 4 x94 + 4 x154 + 4 x214 + 4 x274 - 11 x334 <= 0
 c85:  4 x35 + 4 x95 + 4 x155 + 4 x215 + 4 x275 - 10 x335 <= 0
 c86:  4 x36 + 4 x96 + 4 x156 + 4 x216 + 4 x276 - 11 x336 <= 0
 c87:  4 x37 + 4 x97 + 4 x157 + 4 x217 + 4 x277 - 10 x337 <= 0
 c88:  4 x38 + 4 x98 + 4 x158 + 4 x218 + 4 x278 - 11 x338 <= 0
 c89:  4 x39 + 4 x99 + 4 x159 + 4 x219 + 4 x279 - 11 x339 <= 0
 c90:  4 x40 + 4 x100 + 4 x160 + 4 x220 + 4 x280 - 11 x340 <= 0
 c91:  4 x41 + 4 x101 + 4 x161 + 4 x221 + 4 x281 - 11 x341 <= 0
 c92:  4 x42 + 4 x102 + 4 x162 + 4 x222 + 4 x282 - 11 x342 <= 0
 c93:  4 x43 + 4 x103 + 4 x163 + 4 x223 + 4 x283 - 11 x343 <= 0
 c94:  4 x44 + 4 x104 + 4 x164 + 4 x224 + 4 x284 - 9 x344 <= 0
 c95:  4 x45 + 4 x105 + 4 x165 + 4 x225 + 4 x285 - 10 x345 <= 0
 c96:  4 x46 + 4 x106 + 4 x166 + 4 x226 + 4 x286 - 10 x346 <= 0
 c97:  4 x47 + 4 x107 + 4 x167 + 4 x227 + 4 x287 - 11 x347 <= 0
 c98:  4 x48 + 4 x108 + 4 x168 + 4 x228 + 4 x288 - 10 x348 <= 0
 c99:  4 x49 + 4 x109 + 4 x169 + 4 x229 + 4 x289 - 9 x349 <= 0
 c100: 4 x50 + 4 x110 + 4 x170 + 4 x230 + 4 x290 - 10 x350 <= 0
 c101: 4 x51 + 4 x111 + 4 x171 + 4 x231 + 4 x291 - 10 x351 <= 0
 c102: 4 x52 + 4 x112 + 4 x172 + 4 x232 + 4 x292 - 10 x352 <= 0
 c103: 4 x53 + 4 x113 + 4 x173 + 4 x233 + 4 x293 - 10 x353 <= 0
 c104: 4 x54 + 4 x114 + 4 x174 + 4 x234 + 4 x294 - 10 x354 <= 0
 c105: 4 x55 + 4 x115 + 4 x175 + 4 x235 + 4 x295 - 10 x355 <= 0
 c106: 4 x56 + 4 x116 + 4 x176 + 4 x236 + 4 x296 - 10 x356 <= 0
 c107: 4 x57 + 4 x117 + 4 x177 + 4 x237 + 4 x297 - 9 x357 <= 0
 c108: 4 x58 + 4 x118 + 4 x178 + 4 x238 + 4 x298 - 10 x358 <= 0
 c109: 4 x59 + 4 x119 + 4 x179 + 4 x239 + 4 x299 - 10 x359 <= 0
 c110: 4 x60 + 4 x120 + 4 x180 + 4 x240 + 4 x300 - 6 x360 <= 0
Bounds
 0 <= x1 <= 1
 0 <= x2 <= 1
 0 <= x3 <= 1
 0 <= x4 <= 1
 0 <= x5 <= 1
 0 <= x6 <= 1
 0 <= x7 <= 1
 0 <= x8 <= 1
 0 <= x9 <= 1
 0 <= x10 <= 1
 0 <= x11 <= 1
 0 <= x12 <= 1
 0 <= x13 <= 1
 0 <= x14 <= 1
 0 <= x15 <= 1
 0 <= x16 <= 1
 0 <= x17 <= 1
 0 <= x18 <= 1
 0 <= x19 <= 1
 0 <= x20 <= 1
 0 <= x21 <= 1
 0 <= x22 <= 1
 0 <= x23 <= 1
 0 <= x24 <= 1
 0 <= x25 <= 1
 0 <= x26 <= 1
 0 <= x27 <= 1
 0 <= x28 <= 1
 0 <= x29 <= 1
 0 <= x30 <= 1
 0 <= x31 <= 1
 0 <= x32 <= 1
 0 <= x33 <= 1
 0 <= x34 <= 1
 0 <= x35 <= 1
 0 <= x36 <= 1
 0 <= x37 <= 1
 0 <= x38 <= 1
 0 <= x39 <= 1
 0 <= x40 <= 1
 0 <= x41 <= 1
 0 <= x42 <= 1
 0 <= x43 <= 1
 0 <= x44 <= 1
 0 <= x45 <= 1
 0 <= x46 <= 1
 0 <= x47 <= 1
 0 <= x48 <= 1
 0 <= x49 <= 1
 0 <= x50 <= 1
 0 <= x51 <= 1
 0 <= x52 <= 1
 0 <= x53 <= 1
 0 <= x54 <= 1
 0 <= x55 <= 1
 0 <= x56 <= 1
 0 <= x57 <= 1
 0 <= x58 <= 1
 0 <= x59 <= 1
 0 <= x60 <= 1
 0 <= x61 <= 1
 0 <= x62 <= 1
 0 <= x63 <= 1
 0 <= x64 <= 1
 0 <= x65 <= 1
 0 <= x66 <= 1
 0 <= x67 <= 1
 0 <= x68 <= 1
 0 <= x69 <= 1
 0 <= x70 <= 1
 0 <= x71 <= 1
 0 <= x72 <= 1
 0 <= x73 <= 1
 0 <= x74 <= 1
 0 <= x75 <= 1
 0 <= x76 <= 1
 0 <= x77 <= 1
 0 <= x78 <= 1
 0 <= x79 <= 1
 0 <= x80 <= 1
 0 <= x81 <= 1
 0 <= x82 <= 1
 0 <= x83 <= 1
 0 <= x84 <= 1
 0 <= x85 <= 1
 0 <= x86 <= 1
 0 <= x87 <= 1
 0 <= x88 <= 1
 0 <= x89 <= 1
 0 <= x90 <= 1
 0 <= x91 <= 1
 0 <= x92 <= 1
 0 <= x93 <= 1
 0 <= x94 <= 1
 0 <= x95 <= 1
 0 <= x96 <= 1
 0 <= x97 <= 1
 0 <= x98 <= 1
 0 <= x99 <= 1
 0 <= x100 <= 1
 0 <= x101 <= 1
 0 <= x102 <= 1
 0 <= x103 <= 1
 0 <= x104 <= 1
 0 <= x105 <= 1
 0 <= x106 <= 1
 0 <= x107 <= 1
 0 <= x108 <= 1
 0 <= x109 <= 1
 0 <= x110 <= 1
 0 <= x111 <= 1
 0 <= x112 <= 1
 0 <= x113 <= 1
 0 <= x114 <= 1
 0 <= x115 <= 1
 0 <= x116 <= 1
 0 <= x117 <= 1
 0 <= x118 <= 1
 0 <= x119 <= 1
 0 <= x120 <= 1
 0 <= x121 <= 1
 0 <= x122 <= 1
 0 <= x123 <= 1
 0 <= x124 <= 1
 0 <= x125 <= 1
 0 <= x126 <= 1
 0 <= x127 <= 1
 0 <= x128 <= 1
 0 <= x129 <= 1
 0 <= x130 <= 1
 0 <= x131 <= 1
 0 <= x132 <= 1
 0 <= x133 <= 1
 0 <= x134 <= 1
 0 <= x135 <= 1
 0 <= x136 <= 1
 0 <= x137 <= 1
 0 <= x138 <= 1
 0 <= x139 <= 1
 0 <= x140 <= 1
 0 <= x141 <= 1
 0 <= x142 <= 1
 0 <= x143 <= 1
 0 <= x144 <= 1
 0 <= x145 <= 1
 0 <= x146 <= 1
 0 <= x147 <= 1
 0 <= x148 <= 1
 0 <= x149 <= 1
 0 <= x150 <= 1
 0 <= x151 <= 1
 0 <= x152 <= 1
 0 <= x153 <= 1
 0 <= x154 <= 1
 0 <= x155 <= 1
 0 <= x156 <= 1
 0 <= x157 <= 1
 0 <= x158 <= 1
 0 <= x159 <= 1
 0 <= x160 <= 1
 0 <= x161 <= 1
 0 <= x162 <= 1
 0 <= x163 <= 1
 0 <= x164 <= 1
 0 <= x165 <= 1
 0 <= x166 <= 1
 0 <= x167 <= 1
 0 <= x168 <= 1
 0 <= x169 <= 1
 0 <= x170 <= 1
 0 <= x171 <= 1
 0 <= x172 <= 1
 0 <= x173 <= 1
 0 <= x174 <= 1
 0 <= x175 <= 1
 0 <= x176 <= 1
 0 <= x177 <= 1
 0 <= x178 <= 1
 0 <= x179 <= 1
 0 <= x180 <= 1
 0 <= x181 <= 1
 0 <= x182 <= 1
 0 <= x183 <= 1
 0 <= x184 <= 1
 0 <= x185 <= 1
 0 <= x186 <= 1
 0 <= x187 <= 1
 0 <= x188 <= 1
 0 <= x189 <= 1
 0 <= x190 <= 1
 0 <= x191 <= 1
 0 <= x192 <= 1
 0 <= x193 <= 1
 0 <= x194 <= 1
 0 <= x195 <= 1
 0 <= x196 <= 1
 0 <= x197 <= 1
 0 <= x198 <= 1
 0 <= x199 <= 1
 0 <= x200 <= 1
 0 <= x201 <= 1
 0 <= x202 <= 1
 0 <= x203 <= 1
 0 <= x204 <= 1
 0 <= x205 <= 1
 0 <= x206 <= 1
 0 <= x207 <= 1
 0 <= x208 <= 1
 0 <= x209 <= 1
 0 <= x210 <= 1
 0 <= x211 <= 1
 0 <= x212 <= 1
 0 <= x213 <= 1
 0 <= x214 <= 1
 0 <= x215 <= 1
 0 <= x216 <= 1
 0 <= x217 <= 1
 0 <= x218 <= 1
 0 <= x219 <= 1
 0 <= x220 <= 1
 0 <= x221 <= 1
 0 <= x222 <= 1
 0 <= x223 <= 1
 0 <= x224 <= 1
 0 <= x225 <= 1
 0 <= x226 <= 1
 0 <= x227 <= 1
 0 <= x228 <= 1
 0 <= x229 <= 1
 0 <= x230 <= 1
 0 <= x231 <= 1
 0 <= x232 <= 1
 0 <= x233 <= 1
 0 <= x234 <= 1
 0 <= x235 <= 1
 0 <= x236 <= 1
 0 <= x237 <= 1
 0 <= x238 <= 1
 0 <= x239 <= 1
 0 <= x240 <= 1
 0 <= x241 <= 1
 0 <= x242 <= 1
 0 <= x243 <= 1
 0 <= x244 <= 1
 0 <= x245 <= 1
 0 <= x246 <= 1
 0 <= x247 <= 1
 0 <= x248 <= 1
 0 <= x249 <= 1
 0 <= x250 <= 1
 0 <= x251 <= 1
 0 <= x252 <= 1
 0 <= x253 <= 1
 0 <= x254 <= 1
 0 <= x255 <= 1
 0 <= x256 <= 1
 0 <= x257 <= 1
 0 <= x258 <= 1
 0 <= x259 <= 1
 0 <= x260 <= 1
 0 <= x261 <= 1
 0 <= x262 <= 1
 0 <= x263 <= 1
 0 <= x264 <= 1
 0 <= x265 <= 1
 0 <= x266 <= 1
 0 <= x267 <= 1
 0 <= x268 <= 1
 0 <= x269 <= 1
 0 <= x270 <= 1
 0 <= x271 <= 1
 0 <= x272 <= 1
 0 <= x273 <= 1
 0 <= x274 <= 1
 0 <= x275 <= 1
 0 <= x276 <= 1
 0 <= x277 <= 1
 0 <= x278 <= 1
 0 <= x279 <= 1
 0 <= x280 <= 1
 0 <= x281 <= 1
 0 <= x282 <= 1
 0 <= x283 <= 1
 0 <= x284 <= 1
 0 <= x285 <= 1
 0 <= x286 <= 1
 0 <= x287 <= 1
 0 <= x288 <= 1
 0 <= x289 <= 1
 0 <= x290 <= 1
 0 <= x291 <= 1
 0 <= x292 <= 1
 0 <= x293 <= 1
 0 <= x294 <= 1
 0 <= x295 <= 1
 0 <= x296 <= 1
 0 <= x297 <= 1
 0 <= x298 <= 1
 0 <= x299 <= 1
 0 <= x300 <= 1
 0 <= x301 <= 1
 0 <= x302 <= 1
 0 <= x303 <= 1
 0 <= x304 <= 1
 0 <= x305 <= 1
 0 <= x306 <= 1
 0 <= x307 <= 1
 0 <= x308 <= 1
 0 <= x309 <= 1
 0 <= x310 <= 1
 0 <= x311 <= 1
 0 <= x312 <= 1
 0 <= x313 <= 1
 0 <= x314 <= 1
 0 <= x315 <= 1
 0 <= x316 <= 1
 0 <= x317 <= 1
 0 <= x318 <= 1
 0 <= x319 <= 1
 0 <= x320 <= 1
 0 <= x321 <= 1
 0 <= x322 <= 1
 0 <= x323 <= 1
 0 <= x324 <= 1
 0 <= x325 <= 1
 0 <= x326 <= 1
 0 <= x327 <= 1
 0 <= x328 <= 1
 0 <= x329 <= 1
 0 <= x330 <= 1
 0 <= x331 <= 1
 0 <= x332 <= 1
 0 <= x333 <= 1
 0 <= x334 <= 1
 0 <= x335 <= 1
 0 <= x336 <= 1
 0 <= x337 <= 1
 0 <= x338 <= 1
 0 <= x339 <= 1
 0 <= x340 <= 1
 0 <= x341 <= 1
 0 <= x342 <= 1
 0 <= x343 <= 1
 0 <= x344 <= 1
 0 <= x345 <= 1
 0 <= x346 <= 1
 0 <= x347 <= 1
 0 <= x348 <= 1
 0 <= x349 <= 1
 0 <= x350 <= 1
 0 <= x351 <= 1
 0 <= x352 <= 1
 0 <= x353 <= 1
 0 <= x354 <= 1
 0 <= x355 <= 1
 0 <= x356 <= 1
 0 <= x357 <= 1
 0 <= x358 <= 1
 0 <= x359 <= 1
 0 <= x360 <= 1
Binaries
 x301  x302  x303  x304  x305  x306  x307  x308  x309  x310  x311  x312  x313 
 x314  x315  x316  x317  x318  x319  x320  x321  x322  x323  x324  x325  x326 
 x327  x328  x329  x330  x331  x332  x333  x334  x335  x336  x337  x338  x339 
 x340  x341  x342  x343  x344  x345  x346  x347  x348  x349  x350  x351  x352 
 x353  x354  x355  x356  x357  x358  x359  x360 
End
